letting x_max be 5
letting y_max be 5

letting blanks be 
[
    [0,0,0,0,0],
    [0,0,1,1,0],
    [0,1,1,1,1],
    [0,1,1,1,1],
    [0,0,1,1,0]

]

letting vertsums be 
[
    [00,00,29,18,00],
    [00, 5,00,00, 8],
    [00,00,00,00,00],
    [00,00,00,00,00],
    [00,00,00,00,00]

]

letting horzsums be 
[
    [00,00,00,00,00],
    [00,14,00,00,00],
    [26,00,00,00,00],
    [12,00,00,00,00],
    [00, 8,00,00,00]

]
